1	3	1	1	3	5	0	0	0	0	0	0
800	1	0	0	0	0	0	0	0	0	0	0
100	1	0	60.63	0.49	1	0	0	0	0	0	0
100	1	0	60.63	0.49	1	0	0	0	0	0	0
100     1       0       60.63   0.49    1       0       0       0       0       0       0
50	150	0	0	0	0	9999	0	0	99999	0	0
50	75	0	0	0	0	9999	0	0	99999	0	0
50	75	0	0	0	0	9999	0	0	0	0	0
64	37	0	0	0	0	9999	0	0	0	0	0
21	22	0	0	0	0	9999	0	0	0	0	0
15	19	1	1	0	193	223	10	0	0	0	0
41	37	16	14	2	299	329	10	0	0	0	0
49	11	18	4	14	165	195	10	0	0	0	0
61	52	3	3	0	274	304	10	0	0	0	0
25	24	20	19	1	246	276	10	0	0	0	0

